[2026-03-24T00:45:22.325Z] Pipeline "set_prova_set_prova_set_s007_g002" → 2026_03_24_00_45_22_set_prova_set_prova_set_s007_g002_max.sol
Set parameter WLSAccessID
Set parameter WLSSecret
Set parameter LicenseID to value 2792458
Set parameter LogFile to value "gurobi.log"
Using license file /root/gurobi.lic
Academic license 2792458 - for non-commercial use only - registered to an___@studenti.unipg.it

Gurobi Optimizer version 13.0.1 build v13.0.1rc0 (linux64 - "Ubuntu 24.04.4 LTS")
Copyright (c) 2026, Gurobi Optimization, LLC

Warning: Duplicate section found (read 'binary') - Is a variable name equal to an LP file format keyword?
Warning: Duplicate section found (read 'binary') - Is a variable name equal to an LP file format keyword?
Warning: Duplicate section found (read 'binary') - Is a variable name equal to an LP file format keyword?
Warning: Duplicate section found (read 'binary') - Is a variable name equal to an LP file format keyword?
Warning: Duplicate section found (read 'binary') - Is a variable name equal to an LP file format keyword?
Warning: Duplicate section found (read 'binary') - Is a variable name equal to an LP file format keyword?
Warning: Duplicate section found (read 'binary') - Is a variable name equal to an LP file format keyword?
Warning: Duplicate section found (read 'binary') - Is a variable name equal to an LP file format keyword?
Warning: Duplicate section found (read 'binary') - Is a variable name equal to an LP file format keyword?
Warning: Duplicate section found (read 'binary') - Is a variable name equal to an LP file format keyword?
Warning: Further warnings of this type will be omitted.
Read LP format model from file /root/bgw/data/uploads/2026_03_24_00_45_22_set_prova_set_prova_set_s007_g002_max.lp
Reading time = 0.00 seconds
: 1545 rows, 217 columns, 4488 nonzeros

Using Gurobi shared library /opt/gurobi1301/linux64/lib/libgurobi.so.13.0.1

CPU model: AMD EPYC-Genoa Processor, instruction set [SSE2|AVX|AVX2|AVX512]
Thread count: 16 physical cores, 16 logical processors, using up to 16 threads

Academic license 2792458 - for non-commercial use only - registered to an___@studenti.unipg.it
Optimize a model with 1545 rows, 217 columns and 4488 nonzeros (Max)
Model fingerprint: 0xfc9017a3
Model has 21 linear objective coefficients
Variable types: 37 continuous, 180 integer (180 binary)
Coefficient statistics:
  Matrix range     [1e+00, 2e+01]
  Objective range  [1e+00, 1e+00]
  Bounds range     [1e+00, 1e+00]
  RHS range        [1e+00, 2e+01]

Found heuristic solution: objective 21.0000000
Presolve removed 365 rows and 61 columns
Presolve time: 0.00s
Presolved: 1180 rows, 156 columns, 3696 nonzeros
Variable types: 0 continuous, 156 integer (144 binary)
Found heuristic solution: objective 27.0000000

Root relaxation: objective 9.600000e+01, 234 iterations, 0.01 seconds (0.01 work units)

    Nodes    |    Current Node    |     Objective Bounds      |     Work
 Expl Unexpl |  Obj  Depth IntInf | Incumbent    BestBd   Gap | It/Node Time

     0     0   96.00000    0   73   27.00000   96.00000   256%     -    0s
H    0     0                      34.0000000   96.00000   182%     -    0s
H    0     0                      39.0000000   96.00000   146%     -    0s
H    0     0                      40.0000000   96.00000   140%     -    0s
H    0     0                      43.0000000   96.00000   123%     -    0s
     0     0   96.00000    0   81   43.00000   96.00000   123%     -    0s
     0     0   96.00000    0   81   43.00000   96.00000   123%     -    0s
     0     0   96.00000    0   62   43.00000   96.00000   123%     -    0s
     0     0   96.00000    0   64   43.00000   96.00000   123%     -    0s
     0     0   96.00000    0   64   43.00000   96.00000   123%     -    0s
H    0     0                      46.0000000   96.00000   109%     -    0s
     0     0   96.00000    0   69   46.00000   96.00000   109%     -    0s
     0     0   96.00000    0   68   46.00000   96.00000   109%     -    0s
H    0     0                      47.0000000   96.00000   104%     -    0s
H    0     0                      48.0000000   96.00000   100%     -    0s
H    0     0                      49.0000000   96.00000  95.9%     -    0s
H    0     0                      50.0000000   96.00000  92.0%     -    0s
     0     0   96.00000    0   67   50.00000   96.00000  92.0%     -    0s
     0     0   96.00000    0   65   50.00000   96.00000  92.0%     -    0s
     0     0   96.00000    0   67   50.00000   96.00000  92.0%     -    0s
     0     0   96.00000    0   67   50.00000   96.00000  92.0%     -    0s
     0     0   96.00000    0   66   50.00000   96.00000  92.0%     -    0s
     0     0   96.00000    0   66   50.00000   96.00000  92.0%     -    0s
     0     0   96.00000    0   66   50.00000   96.00000  92.0%     -    0s
     0     0   96.00000    0   66   50.00000   96.00000  92.0%     -    0s
     0     2   96.00000    0   66   50.00000   96.00000  92.0%     -    0s
H   32    42                      53.0000000   96.00000  81.1%  77.1    0s
H   89   105                      56.0000000   96.00000  71.4%  77.1    0s
H   90   105                      57.0000000   96.00000  68.4%  78.0    0s
 31407  5323     cutoff   28        57.00000   72.00000  26.3%  47.2    5s

Cutting planes:
  Cover: 1

Explored 70138 nodes (3330089 simplex iterations) in 9.46 seconds (16.40 work units)
Thread count was 16 (of 16 available processors)

Solution count 10: 57 57 56 ... 47

Optimal solution found (tolerance 1.00e-04)
Best objective 5.700000000000e+01, best bound 5.700000000000e+01, gap 0.0000%

Wrote result file '/root/bgw/data/results/2026_03_24_00_45_22_set_prova_set_prova_set_s007_g002_max.sol'

